WARNING: for repeatability, setting FPU to use double precision
============================[ Problem Statistics ]=============================
|                                                                             |
|  Number of variables:            50                                         |
|  Number of clauses:             218                                         |
|  Parse time:                   0.00 s                                       |
|                                                                             |
============================[ Search Statistics ]==============================
| Conflicts |          ORIGINAL         |          LEARNT          | Progress |
|           |    Vars  Clauses Literals |    Limit  Clauses Lit/Cl |          |
===============================================================================
===============================================================================
restarts              : 1
conflicts             : 66             (43536 /sec)
decisions             : 76             (0.00 % random) (50132 /sec)
propagations          : 975            (643140 /sec)
conflict literals     : 270            (18.43 % deleted)
Memory used           : 20.00 MB
CPU time              : 0.001516 s

UNSATISFIABLE
